NAME : LKH/problem_files/LocalTSPInstance7.467933.tour
COMMENT : Length = 467933
COMMENT : Found by LKH [Keld Helsgaun] Fri Jul  2 10:46:00 2021
TYPE : TOUR
DIMENSION : 136
TOUR_SECTION
1
113
114
112
111
96
95
98
97
81
82
80
79
64
63
66
65
49
50
48
47
32
31
34
33
17
18
16
15
13
14
29
30
45
46
61
62
77
78
93
94
109
110
107
108
104
106
105
103
90
88
89
87
92
91
76
75
71
72
74
73
58
56
57
55
60
59
44
43
39
40
42
41
26
24
25
23
28
27
12
11
7
9
8
10
5
6
21
22
37
38
53
54
69
70
85
86
101
116
102
115
100
99
84
83
68
67
52
51
36
35
20
19
3
4
2
117
122
124
119
118
123
126
121
120
125
128
127
129
130
135
136
132
131
133
134
-1
EOF
